09-routing/solutions/XSH-n20-k4-52.opt.sol
Route #1: 6 9 8 13 16 4 3 5
Route #2: 14 1 19 10
Route #3: 17 2 7 12
Route #4: 20 11 18 15
Cost 622
